% File represents an instance of a Composite Structure problem to be solved by a CP framework
% Created on 2025-03-25 14:05:15.008
T = 60;
n = 36;
m = 60;
edges = [(1, 2),
(7, 8),
(13, 14),
(20, 19),
(26, 25),
(31, 32),
(2, 3),
(8, 9),
(14, 15),
(20, 21),
(26, 27),
(32, 33),
(3, 4),
(10, 9),
(16, 15),
(22, 21),
(28, 27),
(34, 33),
(4, 5),
(10, 11),
(17, 16),
(23, 22),
(29, 28),
(35, 34),
(6, 5),
(12, 11),
(17, 18),
(23, 24),
(30, 29),
(36, 35),
(1, 7),
(7, 13),
(13, 19),
(25, 19),
(25, 31),
(2, 8),
(8, 14),
(20, 14),
(26, 20),
(26, 32),
(3, 9),
(15, 9),
(21, 15),
(21, 27),
(33, 27),
(10, 4),
(10, 16),
(22, 16),
(22, 28),
(28, 34),
(5, 11),
(11, 17),
(17, 23),
(23, 29),
(29, 35),
(6, 12),
(12, 18),
(18, 24),
(30, 24),
(36, 30)];
counts = [|10, 15, 22, 13,
|10, 15, 21, 13,
|6, 15, 21, 13,
|6, 15, 21, 12,
|6, 15, 20, 12,
|6, 16, 26, 12,
|10, 14, 22, 13,
|10, 13, 19, 13,
|4, 12, 18, 11,
|6, 15, 22, 12,
|6, 15, 19, 12,
|6, 16, 20, 12,
|4, 14, 19, 12,
|4, 13, 18, 12,
|4, 12, 18, 12,
|4, 12, 19, 12,
|6, 14, 19, 12,
|6, 14, 19, 9,
|4, 12, 15, 8,
|4, 14, 18, 12,
|4, 13, 18, 12,
|4, 13, 19, 12,
|4, 14, 19, 12,
|4, 9, 17, 9,
|4, 12, 18, 13,
|4, 14, 18, 13,
|3, 8, 16, 12,
|4, 9, 17, 12,
|4, 13, 17, 12,
|4, 13, 17, 15,
|4, 11, 17, 13,
|4, 10, 17, 13,
|4, 8, 16, 12,
|4, 8, 17, 12,
|4, 12, 17, 12,
|5, 16, 18, 16|];
